c This is a random SAT instance with 100 variables and 250 clauses
p cnf 100 250
1 -1
66 -95 45 -62 33 85 -52 47 -58 3 93 97 20 -99 -11 -67 -65 -19 79 -6 -74 83 -84 9 16 31 27 35 82 -96 41 -4 -40 38 -49 90 37 10 -86 32 -46 60 98 -51 -70 -92 -30 -23 -17 -78 -24 -81 -48 54 28 -14 -5 61 22 29 39 12 64 2 87 63 -53 88 -100 25 0